MAX
0.0001z1 + 0.0001z2 + 0.0001z3 + 0.0001z4 + z5
SUBJECT TO
x1_1 + x1_2 + x1_3 + x1_4 + x1_5 + x1_6 + x1_7 + x1_8 + x1_9 + x1_10 = 1
x2_1 + x2_2 + x2_3 + x2_4 + x2_5 + x2_6 + x2_7 + x2_8 + x2_9 + x2_10 = 1
x3_1 + x3_2 + x3_3 + x3_4 + x3_5 + x3_6 + x3_7 + x3_8 + x3_9 + x3_10 = 1
x4_1 + x4_2 + x4_3 + x4_4 + x4_5 + x4_6 + x4_7 + x4_8 + x4_9 + x4_10 = 1
x5_1 + x5_2 + x5_3 + x5_4 + x5_5 + x5_6 + x5_7 + x5_8 + x5_9 + x5_10 = 1
x6_1 + x6_2 + x6_3 + x6_4 + x6_5 + x6_6 + x6_7 + x6_8 + x6_9 + x6_10 = 1
x7_1 + x7_2 + x7_3 + x7_4 + x7_5 + x7_6 + x7_7 + x7_8 + x7_9 + x7_10 = 1
x8_1 + x8_2 + x8_3 + x8_4 + x8_5 + x8_6 + x8_7 + x8_8 + x8_9 + x8_10 = 1
x9_1 + x9_2 + x9_3 + x9_4 + x9_5 + x9_6 + x9_7 + x9_8 + x9_9 + x9_10 = 1
x10_1 + x10_2 + x10_3 + x10_4 + x10_5 + x10_6 + x10_7 + x10_8 + x10_9 + x10_10 = 1
x1_1 + x2_1 + x3_1 + x4_1 + x5_1 + x6_1 + x7_1 + x8_1 + x9_1 + x10_1 = 1
x1_2 + x2_2 + x3_2 + x4_2 + x5_2 + x6_2 + x7_2 + x8_2 + x9_2 + x10_2 = 1
x1_3 + x2_3 + x3_3 + x4_3 + x5_3 + x6_3 + x7_3 + x8_3 + x9_3 + x10_3 = 1
x1_4 + x2_4 + x3_4 + x4_4 + x5_4 + x6_4 + x7_4 + x8_4 + x9_4 + x10_4 = 1
x1_5 + x2_5 + x3_5 + x4_5 + x5_5 + x6_5 + x7_5 + x8_5 + x9_5 + x10_5 = 1
x1_6 + x2_6 + x3_6 + x4_6 + x5_6 + x6_6 + x7_6 + x8_6 + x9_6 + x10_6 = 1
x1_7 + x2_7 + x3_7 + x4_7 + x5_7 + x6_7 + x7_7 + x8_7 + x9_7 + x10_7 = 1
x1_8 + x2_8 + x3_8 + x4_8 + x5_8 + x6_8 + x7_8 + x8_8 + x9_8 + x10_8 = 1
x1_9 + x2_9 + x3_9 + x4_9 + x5_9 + x6_9 + x7_9 + x8_9 + x9_9 + x10_9 = 1
x1_10 + x2_10 + x3_10 + x4_10 + x5_10 + x6_10 + x7_10 + x8_10 + x9_10 + x10_10 = 1
-20x1_1-20x1_2-9x1_3-14x1_4-14x1_5-1x1_6-13x1_7-12x1_8-2x1_9-12x1_10-17x2_1-18x2_2-12x2_3-19x2_4-14x2_5-2x2_6-5x2_7-14x2_8-4x2_9-13x2_10-20x3_1-20x3_2-6x3_3-18x3_4-19x3_5-11x3_6-14x3_7-12x3_8-4x3_9-15x3_10-2x4_1-10x4_2-15x4_3-17x4_4-10x4_5-6x4_6-6x4_7-4x4_8-3x4_9-11x4_10-1x5_1-14x5_2-2x5_3-4x5_4-9x5_5-19x5_6-14x5_7-11x5_8-11x5_9-11x5_10-10x6_1-11x6_2-8x6_3-2x6_4-12x6_5-16x6_6-9x6_7-3x6_8-14x6_9-8x6_10-16x7_1-16x7_2-16x7_3-20x7_4-14x7_5-18x7_6-5x7_7-8x7_8-6x7_9-4x7_10-10x8_1-13x8_2-7x8_3-14x8_4-5x8_5-2x8_6-3x8_7-19x8_8-6x8_9-15x8_10-15x9_1-18x9_2-5x9_3-11x9_4-2x9_5-1x9_6-14x9_7-16x9_8-10x9_9-17x9_10-14x10_1-14x10_2-14x10_3-12x10_4-19x10_5-2x10_6-8x10_7-3x10_8-8x10_9-2x10_10 - z1 = 0
-5x1_1-1x1_2-16x1_3-5x1_4-4x1_5-2x1_6-17x1_7-11x1_8-20x1_9-10x1_10-16x2_1-6x2_2-5x2_3-2x2_4-13x2_5-13x2_6-20x2_7-4x2_8-8x2_9-10x2_10-10x3_1-14x3_2-8x3_3-2x3_4-18x3_5-2x3_6-11x3_7-14x3_8-9x3_9-8x3_10-4x4_1-6x4_2-10x4_3-2x4_4-1x4_5-10x4_6-3x4_7-7x4_8-13x4_9-14x4_10-18x5_1-5x5_2-3x5_3-14x5_4-11x5_5-1x5_6-9x5_7-5x5_8-4x5_9-1x5_10-9x6_1-14x6_2-16x6_3-1x6_4-10x6_5-2x6_6-5x6_7-19x6_8-1x6_9-16x6_10-8x7_1-16x7_2-13x7_3-13x7_4-7x7_5-14x7_6-15x7_7-6x7_8-1x7_9-5x7_10-7x8_1-20x8_2-10x8_3-16x8_4-14x8_5-12x8_6-4x8_7-13x8_8-15x8_9-2x8_10-5x9_1-3x9_2-6x9_3-3x9_4-14x9_5-19x9_6-12x9_7-18x9_8-2x9_9-15x9_10-12x10_1-9x10_2-4x10_3-9x10_4-18x10_5-19x10_6-1x10_7-19x10_8-4x10_9-4x10_10 - z2 = 0
-10x1_1-18x1_2-5x1_3-4x1_4-8x1_5-18x1_6-16x1_7-14x1_8-13x1_9-9x1_10-15x2_1-15x2_2-11x2_3-4x2_4-18x2_5-2x2_6-1x2_7-7x2_8-17x2_9-5x2_10-19x3_1-8x3_2-5x3_3-16x3_4-17x3_5-10x3_6-20x3_7-6x3_8-19x3_9-12x3_10-16x4_1-10x4_2-9x4_3-20x4_4-11x4_5-2x4_6-20x4_7-17x4_8-4x4_9-19x4_10-16x5_1-4x5_2-12x5_3-16x5_4-17x5_5-8x5_6-1x5_7-10x5_8-15x5_9-8x5_10-6x6_1-17x6_2-12x6_3-11x6_4-9x6_5-16x6_6-10x6_7-13x6_8-18x6_9-3x6_10-8x7_1-10x7_2-19x7_3-1x7_4-18x7_5-10x7_6-9x7_7-15x7_8-6x7_9-4x7_10-11x8_1-5x8_2-14x8_3-13x8_4-14x8_5-8x8_6-18x8_7-8x8_8-15x8_9-18x8_10-4x9_1-3x9_2-7x9_3-9x9_4-17x9_5-20x9_6-14x9_7-6x9_8-17x9_9-19x9_10-20x10_1-7x10_2-12x10_3-20x10_4-8x10_5-19x10_6-2x10_7-7x10_8-18x10_9-8x10_10 - z3 = 0
-1x1_1-18x1_2-5x1_3-3x1_4-11x1_5-10x1_6-12x1_7-7x1_8-14x1_9-12x1_10-9x2_1-2x2_2-20x2_3-14x2_4-13x2_5-16x2_6-1x2_7-15x2_8-18x2_9-6x2_10-13x3_1-2x3_2-9x3_3-18x3_4-17x3_5-3x3_6-4x3_7-18x3_8-11x3_9-7x3_10-13x4_1-20x4_2-3x4_3-8x4_4-3x4_5-14x4_6-8x4_7-17x4_8-18x4_9-9x4_10-12x5_1-14x5_2-1x5_3-10x5_4-6x5_5-19x5_6-13x5_7-17x5_8-5x5_9-8x5_10-15x6_1-13x6_2-17x6_3-19x6_4-5x6_5-16x6_6-8x6_7-13x6_8-15x6_9-5x6_10-13x7_1-5x7_2-20x7_3-7x7_4-14x7_5-6x7_6-2x7_7-4x7_8-19x7_9-2x7_10-4x8_1-5x8_2-5x8_3-14x8_4-13x8_5-17x8_6-17x8_7-3x8_8-10x8_9-3x8_10-4x9_1-12x9_2-13x9_3-19x9_4-1x9_5-16x9_6-11x9_7-2x9_8-17x9_9-6x9_10-20x10_1-13x10_2-12x10_3-11x10_4-10x10_5-5x10_6-7x10_7-9x10_8-12x10_9-15x10_10 - z4 = 0
-20x1_1-11x1_2-8x1_3-10x1_4-8x1_5-20x1_6-11x1_7-10x1_8-5x1_9-7x1_10-18x2_1-4x2_2-11x2_3-19x2_4-8x2_5-15x2_6-15x2_7-7x2_8-7x2_9-8x2_10-20x3_1-4x3_2-15x3_3-20x3_4-18x3_5-10x3_6-7x3_7-6x3_8-9x3_9-9x3_10-8x4_1-20x4_2-12x4_3-14x4_4-15x4_5-3x4_6-2x4_7-12x4_8-7x4_9-6x4_10-20x5_1-9x5_2-8x5_3-4x5_4-5x5_5-11x5_6-17x5_7-16x5_8-8x5_9-11x5_10-9x6_1-16x6_2-8x6_3-10x6_4-18x6_5-19x6_6-10x6_7-16x6_8-11x6_9-5x6_10-2x7_1-4x7_2-10x7_3-8x7_4-7x7_5-5x7_6-13x7_7-14x7_8-1x7_9-3x7_10-3x8_1-13x8_2-3x8_3-13x8_4-4x8_5-6x8_6-6x8_7-5x8_8-8x8_9-15x8_10-6x9_1-9x9_2-9x9_3-11x9_4-11x9_5-9x9_6-8x9_7-4x9_8-4x9_9-14x9_10-10x10_1-17x10_2-2x10_3-11x10_4-4x10_5-20x10_6-3x10_7-18x10_8-13x10_9-11x10_10 - z5 = 0
BOUNDS
z1 free
z2 free
z3 free
z4 free
z5 free
BINARIES
x1_1
x1_2
x1_3
x1_4
x1_5
x1_6
x1_7
x1_8
x1_9
x1_10
x2_1
x2_2
x2_3
x2_4
x2_5
x2_6
x2_7
x2_8
x2_9
x2_10
x3_1
x3_2
x3_3
x3_4
x3_5
x3_6
x3_7
x3_8
x3_9
x3_10
x4_1
x4_2
x4_3
x4_4
x4_5
x4_6
x4_7
x4_8
x4_9
x4_10
x5_1
x5_2
x5_3
x5_4
x5_5
x5_6
x5_7
x5_8
x5_9
x5_10
x6_1
x6_2
x6_3
x6_4
x6_5
x6_6
x6_7
x6_8
x6_9
x6_10
x7_1
x7_2
x7_3
x7_4
x7_5
x7_6
x7_7
x7_8
x7_9
x7_10
x8_1
x8_2
x8_3
x8_4
x8_5
x8_6
x8_7
x8_8
x8_9
x8_10
x9_1
x9_2
x9_3
x9_4
x9_5
x9_6
x9_7
x9_8
x9_9
x9_10
x10_1
x10_2
x10_3
x10_4
x10_5
x10_6
x10_7
x10_8
x10_9
x10_10
END